param set_len = 16;
param target := 470732149;
set values := 49363616, 77261450, 93134853, 35383435, 87438309, 18775208, 100844661, 48489026, 114029480, 3341132, 45323433, 49712871, 62667759, 5399889, 47425774, 66239783, ;
